============================[ Problem Statistics ]=============================|                                                                             ||  Number of variables:          4242                                         ||  Number of clauses:           10146                                         ||  Parse time:                   0.53 s                                       ||                                                                             |============================[ Search Statistics ]==============================| Conflicts |          ORIGINAL         |          LEARNT          | Progress ||           |    Vars  Clauses Literals |    Limit  Clauses Lit/Cl |          |===============================================================================|       100 |    1591     6351   851842 |     2328      100     53 | 62.501 % ||       250 |    1591     6351   851842 |     2561      250     75 | 62.495 % |===============================================================================restarts              : 3conflicts             : 297            (368 /sec)decisions             : 559            (0.00 % random) (694 /sec)propagations          : 11844          (14695 /sec)conflict literals     : 23369          (94.75 % deleted)CPU time              : 0.806 sSATISFIABLE